; benchmark generated from python API
(set-info :status unknown)
(declare-fun R_E1_V6 () Bool)
(declare-fun W_S1_V6 () Bool)
(declare-fun R_E1_V4 () Bool)
(declare-fun W_S1_V4 () Bool)
(declare-fun W_S1_V3 () Bool)
(declare-fun W_S1_V1 () Bool)
(declare-fun R_S1_V6 () Bool)
(declare-fun R_S1_V4 () Bool)
(declare-fun R_S1_V5 () Bool)
(declare-fun R_S1_V2 () Bool)
(declare-fun R_S1_V3 () Bool)
(declare-fun R_S1_V1 () Bool)
(declare-fun R_E2_V6 () Bool)
(declare-fun R_E2_V4 () Bool)
(declare-fun R_E2_V5 () Bool)
(declare-fun R_E2_V2 () Bool)
(declare-fun R_E2_V1 () Bool)
(declare-fun R_E1_V5 () Bool)
(declare-fun DISJ_W_S1_R_S1 () Bool)
(declare-fun DISJ_W_S1_R_E2 () Bool)
(declare-fun W_S1_V5 () Bool)
(declare-fun W_S1_V2 () Bool)
(declare-fun R_E1_V3 () Bool)
(declare-fun R_E1_V1 () Bool)
(declare-fun R_E2_V3 () Bool)
(declare-fun DISJ_W_S1_R_E1 () Bool)
(assert
 (let (($x3657 (not (and W_S1_V6 R_E1_V6))))
 (let (($x3294 (not (and W_S1_V4 R_E1_V4))))
 (let (($x4101 (forall ((V2_0 Int) )(forall ((V5_0 Int) )(forall ((V4_0 Int) )(forall ((V6_0 Int) )(forall ((MW_S1_V1 Bool) )(forall ((MW_S1_V3 Bool) )(forall ((MW_S1_V2 Bool) )(forall ((MW_S1_V5 Bool) )(forall ((MW_S1_V4 Bool) )(forall ((MW_S1_V6 Bool) )(forall ((S1_V1_!7824 Int) )(forall ((S1_V1_!7834 Int) )(forall ((S1_V1_!7840 Int) )(forall ((S1_V3_!7825 Int) )(forall ((S1_V3_!7835 Int) )(forall ((S1_V3_!7841 Int) )(forall ((S1_V2_!7826 Int) )(forall ((S1_V2_!7836 Int) )(forall ((S1_V2_!7842 Int) )(forall ((E1_!7821 Int) )(forall ((E1_!7831 Int) )(forall ((E1_!7833 Int) )(forall ((S1_V5_!7827 Int) )(forall ((S1_V5_!7837 Int) )(forall ((S1_V5_!7843 Int) )(forall ((E2_!7822 Int) )(forall ((E2_!7823 Int) )(forall ((E2_!7830 Int) )(forall ((E2_!7832 Int) )(forall ((S1_V4_!7828 Int) )(forall ((S1_V4_!7838 Int) )(forall ((S1_V4_!7844 Int) )(forall ((S1_V6_!7829 Int) )(forall ((S1_V6_!7839 Int) )(forall ((S1_V6_!7845 Int) )(let ((?x182 (ite MW_S1_V1 S1_V1_!7824 E1_!7821)))
 (let (($x3264 (= ?x182 (+ (- 1) (ite MW_S1_V1 S1_V1_!7840 (+ 1 (ite MW_S1_V1 S1_V1_!7834 E1_!7833)))))))
 (let (($x1588 (and $x3264 (= E2_!7830 (+ 1 (ite MW_S1_V3 S1_V3_!7841 E2_!7832))) (= (ite MW_S1_V2 S1_V2_!7826 V2_0) (ite MW_S1_V2 S1_V2_!7842 V2_0)) (= (ite MW_S1_V5 S1_V5_!7827 V5_0) (ite MW_S1_V5 S1_V5_!7843 V5_0)) (= (ite MW_S1_V4 S1_V4_!7828 V4_0) (ite MW_S1_V4 S1_V4_!7844 V4_0)) (= (ite MW_S1_V6 S1_V6_!7829 V6_0) (ite MW_S1_V6 S1_V6_!7845 V6_0)))))
 (let ((?x1012 (ite MW_S1_V1 S1_V1_!7834 E1_!7833)))
 (let ((?x4294 (+ 1 ?x1012)))
 (let ((?x1028 (ite MW_S1_V1 S1_V1_!7840 ?x4294)))
 (let (($x5250 (and (not (<= V4_0 E2_!7822)) (not (<= V2_0 E1_!7821)) (not (<= V4_0 E2_!7823)) (>= (ite MW_S1_V3 S1_V3_!7825 E2_!7823) (+ (- 1) (ite MW_S1_V4 S1_V4_!7828 V4_0))) (not (<= (ite MW_S1_V2 S1_V2_!7826 V2_0) (+ 1 ?x182))) (>= E2_!7830 (ite MW_S1_V4 S1_V4_!7828 V4_0)) (>= ?x182 (+ (- 2) (ite MW_S1_V2 S1_V2_!7826 V2_0))) (not (<= V2_0 E1_!7831)) (not (<= V4_0 E2_!7832)) (not (<= V2_0 E1_!7833)) (not (<= (ite MW_S1_V2 S1_V2_!7836 V2_0) ?x4294)) (>= ?x1028 (+ (- 1) (ite MW_S1_V2 S1_V2_!7842 V2_0))) (>= (ite MW_S1_V3 S1_V3_!7841 E2_!7832) (+ (- 1) (ite MW_S1_V4 S1_V4_!7844 V4_0))))))
 (let (($x570 (= S1_V6_!7845 S1_V6_!7839)))
 (let (($x4841 (not R_S1_V6)))
 (let (($x663 (or $x4841 (= (ite MW_S1_V6 S1_V6_!7839 V6_0) V6_0))))
 (let (($x6065 (not R_S1_V4)))
 (let (($x3662 (or $x6065 (= (ite MW_S1_V4 S1_V4_!7838 V4_0) V4_0))))
 (let (($x3243 (not R_S1_V5)))
 (let (($x1783 (or $x3243 (= (ite MW_S1_V5 S1_V5_!7837 V5_0) V5_0))))
 (let (($x1712 (not R_S1_V2)))
 (let (($x43 (or $x1712 (= (ite MW_S1_V2 S1_V2_!7836 V2_0) V2_0))))
 (let (($x2096 (and (or (not R_S1_V1) (= ?x1012 (+ (- 1) E1_!7833))) (or (not R_S1_V3) (= (ite MW_S1_V3 S1_V3_!7835 E2_!7832) E2_!7832)) $x43 $x1783 $x3662 $x663)))
 (let (($x3645 (not $x2096)))
 (let (($x1198 (and (or (not R_S1_V1) (= ?x1012 (+ (- 1) E1_!7821))) (or (not R_S1_V3) (= (ite MW_S1_V3 S1_V3_!7835 E2_!7832) E2_!7823)) $x43 $x1783 $x3662 $x663)))
 (let (($x2912 (not $x1198)))
 (let (($x229 (and (or (not R_S1_V1) (= E1_!7833 E1_!7821)) (or (not R_S1_V3) (= E2_!7832 E2_!7823)))))
 (let (($x1502 (not $x229)))
 (let (($x2450 (or $x4841 (= V6_0 (ite MW_S1_V6 S1_V6_!7839 V6_0)))))
 (let (($x6006 (or $x6065 (= V4_0 (ite MW_S1_V4 S1_V4_!7838 V4_0)))))
 (let (($x3777 (or $x3243 (= V5_0 (ite MW_S1_V5 S1_V5_!7837 V5_0)))))
 (let (($x3502 (or $x1712 (= V2_0 (ite MW_S1_V2 S1_V2_!7836 V2_0)))))
 (let (($x3373 (and (or (not R_S1_V1) (= E1_!7833 ?x4294)) (or (not R_S1_V3) (= E2_!7832 (ite MW_S1_V3 S1_V3_!7835 E2_!7832))) $x3502 $x3777 $x6006 $x2450)))
 (let (($x3555 (not $x3373)))
 (let (($x3158 (= E2_!7830 E2_!7832)))
 (let (($x2985 (not R_E2_V6)))
 (let (($x1551 (or $x2985 (= (ite MW_S1_V6 S1_V6_!7829 V6_0) V6_0))))
 (let (($x1706 (not R_E2_V4)))
 (let (($x554 (or $x1706 (= (ite MW_S1_V4 S1_V4_!7828 V4_0) V4_0))))
 (let (($x712 (not R_E2_V5)))
 (let (($x1138 (or $x712 (= (ite MW_S1_V5 S1_V5_!7827 V5_0) V5_0))))
 (let (($x2141 (not R_E2_V2)))
 (let (($x3281 (or $x2141 (= (ite MW_S1_V2 S1_V2_!7826 V2_0) V2_0))))
 (let (($x3988 (and (or (not R_E2_V1) (= ?x182 (+ (- 1) E1_!7831))) $x3281 $x1138 $x554 $x1551)))
 (let (($x1168 (and (or (not R_E2_V1) (= ?x182 (+ (- 1) E1_!7821))) $x3281 $x1138 $x554 $x1551)))
 (let (($x2625 (not $x1168)))
 (let (($x3577 (= E1_!7833 E1_!7831)))
 (let (($x3149 (= E1_!7821 E1_!7833)))
 (let (($x3365 (= E1_!7821 E1_!7831)))
 (let (($x4620 (and (or (not R_S1_V1) (= E1_!7821 ?x4294)) (or (not R_S1_V3) (= E2_!7823 (ite MW_S1_V3 S1_V3_!7835 E2_!7832))) $x3502 $x3777 $x6006 $x2450)))
 (let (($x2924 (not $x4620)))
 (let (($x5460 (not (and (or (not R_S1_V1) $x3149) (or (not R_S1_V3) (= E2_!7823 E2_!7832))))))
 (let (($x98 (and (or $x5460 (= S1_V1_!7824 S1_V1_!7834)) (or $x2924 (= S1_V1_!7824 S1_V1_!7840)) (or $x3645 (= S1_V1_!7840 S1_V1_!7834)) (or $x5460 (= S1_V3_!7825 S1_V3_!7835)) (or $x2924 (= S1_V3_!7825 S1_V3_!7841)) (or $x3645 (= S1_V3_!7841 S1_V3_!7835)) (or $x1502 (= S1_V2_!7836 S1_V2_!7826)) (or $x2912 (= S1_V2_!7842 S1_V2_!7826)) (or $x3645 (= S1_V2_!7842 S1_V2_!7836)) $x3365 $x3149 $x3577 (or $x1502 (= S1_V5_!7837 S1_V5_!7827)) (or $x3555 (= S1_V5_!7837 S1_V5_!7843)) (or $x2912 (= S1_V5_!7843 S1_V5_!7827)) (= E2_!7822 E2_!7823) (or (not (or (not R_E2_V1) $x3365)) (= E2_!7822 E2_!7832)) (or (not (or (not R_E2_V1) $x3365)) (= E2_!7823 E2_!7832)) (or $x2625 (= E2_!7830 E2_!7822)) (or $x2625 (= E2_!7830 E2_!7823)) (or (not $x3988) $x3158) (or $x1502 (= S1_V4_!7838 S1_V4_!7828)) (or $x3555 (= S1_V4_!7838 S1_V4_!7844)) (or $x2912 (= S1_V4_!7844 S1_V4_!7828)) (or $x1502 (= S1_V6_!7839 S1_V6_!7829)) (or $x2912 (= S1_V6_!7845 S1_V6_!7829)) (or $x3645 $x570) (or (not MW_S1_V1) W_S1_V1) (or (not MW_S1_V3) W_S1_V3) (not MW_S1_V2) (or (not MW_S1_V4) W_S1_V4) (or (not MW_S1_V6) W_S1_V6))))
 (or (not $x98) (not $x5250) $x1588)))))))))))))))))))))))))))))))))))))))))))))))))
 )
 )
 )
 )
 )
 )
 )
 )
 )
 )
 )
 )
 )
 )
 )
 )
 )
 )
 )
 )
 )
 )
 )
 )
 )
 )
 )
 )
 )
 )
 )
 )
 )
 )
 ))
 (let (($x5750 (not R_E1_V5)))
 (let (($x3137 (and W_S1_V6 R_S1_V6)))
 (let (($x2433 (and W_S1_V4 R_S1_V4)))
 (let (($x2113 (and W_S1_V3 R_S1_V3)))
 (let (($x5102 (and W_S1_V1 R_S1_V1)))
 (let (($x5465 (= DISJ_W_S1_R_S1 (not (or $x5102 $x2113 R_S1_V5 $x2433 $x3137)))))
 (let (($x1525 (and W_S1_V6 R_E2_V6)))
 (let (($x483 (and W_S1_V4 R_E2_V4)))
 (let (($x2783 (and W_S1_V1 R_E2_V1)))
 (let (($x1476 (= DISJ_W_S1_R_E2 (not (or $x2783 R_E2_V5 $x483 $x1525)))))
 (let (($x1090 (or DISJ_W_S1_R_S1 (not W_S1_V1))))
 (let (($x890 (not W_S1_V2)))
 (let (($x1526 (not R_E1_V3)))
 (let (($x253 (not R_E1_V1)))
 (let (($x391 (not R_E2_V3)))
 (and DISJ_W_S1_R_E1 $x391 $x253 $x1526 $x890 $x1090 W_S1_V5 $x1476 $x5465 $x5750 $x4101 $x3294 $x3657))))))))))))))))))))
(check-sat)
